c "604365.clq"
p edge 100 1344
e 1 17
e 1 18
e 1 19
e 1 20
e 1 21
e 1 22
e 1 23
e 1 24
e 1 25
e 1 29
e 1 30
e 1 33
e 1 35
e 1 37
e 1 39
e 1 41
e 1 48
e 1 50
e 1 55
e 1 65
e 1 66
e 1 67
e 1 70
e 1 72
e 1 77
e 1 78
e 1 80
e 1 83
e 1 85
e 1 93
e 2 17
e 2 18
e 2 19
e 2 20
e 2 23
e 2 34
e 2 44
e 2 46
e 2 47
e 2 48
e 2 55
e 2 56
e 2 80
e 3 17
e 3 18
e 3 19
e 3 20
e 3 21
e 3 22
e 3 23
e 3 27
e 3 28
e 3 30
e 3 37
e 3 38
e 3 43
e 3 46
e 3 48
e 3 63
e 3 76
e 3 88
e 3 90
e 3 97
e 3 98
e 4 17
e 4 18
e 4 19
e 4 20
e 4 25
e 4 28
e 4 29
e 4 30
e 4 35
e 4 44
e 4 47
e 4 49
e 4 51
e 4 52
e 4 53
e 4 57
e 4 59
e 4 63
e 4 70
e 4 81
e 4 82
e 4 97
e 5 17
e 5 18
e 5 19
e 5 20
e 5 21
e 5 22
e 5 23
e 5 24
e 5 26
e 5 27
e 5 30
e 5 31
e 5 34
e 5 36
e 5 37
e 5 39
e 5 42
e 5 48
e 5 51
e 5 60
e 5 62
e 5 64
e 5 66
e 5 70
e 5 73
e 5 77
e 5 80
e 5 85
e 5 86
e 5 92
e 5 94
e 6 17
e 6 18
e 6 19
e 6 20
e 6 21
e 6 22
e 6 24
e 6 25
e 6 26
e 6 27
e 6 30
e 6 31
e 6 33
e 6 34
e 6 37
e 6 39
e 6 41
e 6 42
e 6 44
e 6 45
e 6 48
e 6 51
e 6 52
e 6 53
e 6 56
e 6 60
e 6 62
e 6 66
e 6 71
e 6 73
e 6 74
e 6 76
e 6 77
e 6 82
e 6 89
e 6 94
e 6 98
e 7 17
e 7 18
e 7 19
e 7 21
e 7 22
e 7 23
e 7 24
e 7 28
e 7 31
e 7 32
e 7 35
e 7 36
e 7 37
e 7 39
e 7 54
e 7 64
e 7 65
e 7 74
e 7 75
e 7 76
e 7 79
e 7 84
e 7 86
e 8 17
e 8 18
e 8 19
e 8 20
e 8 28
e 8 33
e 8 48
e 8 49
e 8 58
e 8 60
e 8 76
e 8 78
e 8 98
e 9 17
e 9 18
e 9 19
e 9 20
e 9 21
e 9 22
e 9 23
e 9 26
e 9 27
e 9 28
e 9 29
e 9 45
e 9 47
e 9 57
e 9 60
e 9 67
e 9 81
e 9 86
e 9 88
e 9 91
e 9 98
e 10 17
e 10 19
e 10 20
e 10 22
e 10 24
e 10 25
e 10 26
e 10 29
e 10 31
e 10 34
e 10 38
e 10 44
e 10 54
e 10 56
e 10 57
e 10 67
e 10 91
e 11 17
e 11 18
e 11 20
e 11 21
e 11 24
e 11 25
e 11 26
e 11 27
e 11 29
e 11 30
e 11 31
e 11 33
e 11 35
e 11 36
e 11 37
e 11 38
e 11 39
e 11 41
e 11 43
e 11 44
e 11 51
e 11 52
e 11 57
e 11 59
e 11 62
e 11 63
e 11 65
e 11 67
e 11 69
e 11 73
e 11 74
e 11 88
e 11 91
e 11 93
e 11 100
e 12 17
e 12 18
e 12 21
e 12 23
e 12 24
e 12 25
e 12 26
e 12 29
e 12 32
e 12 36
e 12 39
e 12 43
e 12 50
e 12 74
e 12 86
e 12 88
e 13 17
e 13 18
e 13 19
e 13 21
e 13 22
e 13 23
e 13 24
e 13 25
e 13 26
e 13 27
e 13 28
e 13 29
e 13 31
e 13 32
e 13 33
e 13 41
e 13 45
e 13 49
e 13 50
e 13 53
e 13 56
e 13 71
e 13 73
e 13 75
e 13 78
e 13 81
e 13 85
e 13 94
e 14 17
e 14 18
e 14 19
e 14 20
e 14 21
e 14 22
e 14 26
e 14 29
e 14 33
e 14 38
e 14 40
e 14 42
e 14 43
e 14 44
e 14 47
e 14 49
e 14 87
e 14 99
e 15 17
e 15 18
e 15 19
e 15 20
e 15 21
e 15 22
e 15 23
e 15 25
e 15 26
e 15 27
e 15 32
e 15 33
e 15 36
e 15 39
e 15 44
e 15 49
e 15 51
e 15 54
e 15 60
e 15 65
e 15 66
e 15 70
e 15 97
e 16 17
e 16 18
e 16 19
e 16 20
e 16 21
e 16 22
e 16 23
e 16 24
e 16 25
e 16 27
e 16 28
e 16 29
e 16 30
e 16 33
e 16 35
e 16 40
e 16 41
e 16 45
e 16 52
e 16 69
e 16 87
e 16 90
e 16 91
e 16 94
e 16 95
e 16 97
e 16 100
e 17 18
e 17 19
e 17 20
e 17 21
e 17 22
e 17 23
e 17 24
e 17 26
e 17 27
e 17 28
e 17 30
e 17 31
e 17 32
e 17 33
e 17 34
e 17 40
e 17 41
e 17 42
e 17 45
e 17 46
e 17 47
e 17 49
e 17 50
e 17 51
e 17 53
e 17 54
e 17 55
e 17 56
e 17 57
e 17 59
e 17 61
e 17 64
e 17 67
e 17 68
e 17 69
e 17 72
e 17 77
e 17 80
e 17 81
e 17 82
e 17 84
e 17 85
e 17 88
e 17 90
e 17 93
e 17 96
e 17 98
e 17 99
e 18 19
e 18 20
e 18 21
e 18 22
e 18 23
e 18 24
e 18 25
e 18 27
e 18 28
e 18 29
e 18 30
e 18 31
e 18 33
e 18 34
e 18 35
e 18 37
e 18 38
e 18 40
e 18 42
e 18 44
e 18 47
e 18 48
e 18 52
e 18 53
e 18 54
e 18 59
e 18 62
e 18 63
e 18 64
e 18 66
e 18 70
e 18 73
e 18 74
e 18 79
e 18 86
e 18 91
e 18 92
e 18 100
e 19 20
e 19 21
e 19 22
e 19 23
e 19 24
e 19 25
e 19 26
e 19 27
e 19 28
e 19 30
e 19 32
e 19 33
e 19 34
e 19 35
e 19 38
e 19 39
e 19 40
e 19 42
e 19 43
e 19 44
e 19 45
e 19 46
e 19 47
e 19 49
e 19 57
e 19 58
e 19 63
e 19 65
e 19 69
e 19 70
e 19 78
e 19 80
e 19 88
e 19 90
e 19 92
e 19 97
e 19 98
e 20 21
e 20 22
e 20 23
e 20 24
e 20 25
e 20 26
e 20 27
e 20 28
e 20 29
e 20 30
e 20 31
e 20 32
e 20 35
e 20 36
e 20 37
e 20 43
e 20 49
e 20 54
e 20 60
e 20 62
e 20 65
e 20 74
e 20 83
e 20 85
e 20 86
e 20 91
e 20 94
e 20 97
e 20 99
e 21 22
e 21 23
e 21 24
e 21 25
e 21 26
e 21 27
e 21 31
e 21 34
e 21 36
e 21 37
e 21 39
e 21 40
e 21 41
e 21 42
e 21 43
e 21 48
e 21 56
e 21 58
e 21 59
e 21 62
e 21 63
e 21 67
e 21 70
e 21 72
e 21 74
e 21 76
e 21 77
e 21 81
e 21 82
e 21 84
e 21 86
e 21 87
e 21 92
e 21 93
e 21 94
e 21 96
e 21 100
e 22 23
e 22 24
e 22 25
e 22 26
e 22 28
e 22 29
e 22 30
e 22 32
e 22 33
e 22 34
e 22 35
e 22 36
e 22 40
e 22 42
e 22 43
e 22 44
e 22 45
e 22 50
e 22 53
e 22 54
e 22 55
e 22 57
e 22 59
e 22 62
e 22 64
e 22 67
e 22 68
e 22 77
e 22 80
e 22 83
e 22 85
e 22 93
e 22 94
e 22 95
e 22 99
e 23 24
e 23 25
e 23 27
e 23 28
e 23 29
e 23 30
e 23 31
e 23 32
e 23 34
e 23 36
e 23 38
e 23 39
e 23 42
e 23 43
e 23 44
e 23 46
e 23 47
e 23 53
e 23 57
e 23 59
e 23 61
e 23 62
e 23 66
e 23 67
e 23 71
e 23 72
e 23 74
e 23 75
e 23 76
e 23 81
e 23 82
e 23 84
e 23 88
e 23 92
e 23 95
e 23 97
e 23 100
e 24 25
e 24 26
e 24 27
e 24 28
e 24 30
e 24 31
e 24 32
e 24 34
e 24 36
e 24 37
e 24 39
e 24 40
e 24 41
e 24 48
e 24 50
e 24 51
e 24 55
e 24 57
e 24 61
e 24 64
e 24 65
e 24 71
e 24 72
e 24 75
e 24 76
e 24 79
e 24 80
e 24 82
e 24 84
e 24 93
e 24 98
e 24 100
e 25 26
e 25 28
e 25 30
e 25 31
e 25 32
e 25 33
e 25 34
e 25 37
e 25 40
e 25 42
e 25 43
e 25 46
e 25 49
e 25 50
e 25 51
e 25 52
e 25 53
e 25 54
e 25 56
e 25 59
e 25 60
e 25 61
e 25 62
e 25 67
e 25 68
e 25 72
e 25 73
e 25 77
e 25 78
e 25 79
e 25 80
e 25 81
e 25 83
e 25 84
e 25 86
e 25 88
e 25 92
e 25 94
e 25 96
e 25 98
e 26 27
e 26 28
e 26 29
e 26 31
e 26 32
e 26 34
e 26 35
e 26 38
e 26 40
e 26 41
e 26 42
e 26 45
e 26 46
e 26 48
e 26 51
e 26 55
e 26 58
e 26 59
e 26 60
e 26 63
e 26 64
e 26 71
e 26 75
e 26 78
e 26 80
e 26 81
e 26 83
e 26 84
e 26 85
e 26 89
e 26 94
e 26 95
e 26 99
e 26 100
e 27 29
e 27 32
e 27 33
e 27 34
e 27 36
e 27 37
e 27 39
e 27 40
e 27 41
e 27 42
e 27 43
e 27 44
e 27 46
e 27 47
e 27 48
e 27 49
e 27 58
e 27 60
e 27 61
e 27 66
e 27 68
e 27 69
e 27 70
e 27 73
e 27 78
e 27 79
e 27 82
e 27 89
e 27 92
e 27 98
e 27 100
e 28 29
e 28 30
e 28 33
e 28 36
e 28 37
e 28 38
e 28 39
e 28 40
e 28 43
e 28 51
e 28 52
e 28 53
e 28 58
e 28 61
e 28 62
e 28 66
e 28 67
e 28 73
e 28 74
e 28 75
e 28 78
e 28 89
e 28 91
e 28 93
e 28 94
e 28 96
e 28 97
e 28 99
e 29 31
e 29 32
e 29 33
e 29 34
e 29 35
e 29 39
e 29 40
e 29 41
e 29 44
e 29 45
e 29 47
e 29 49
e 29 51
e 29 54
e 29 57
e 29 64
e 29 68
e 29 69
e 29 71
e 29 72
e 29 79
e 29 81
e 29 84
e 29 87
e 29 89
e 29 91
e 29 100
e 30 31
e 30 32
e 30 35
e 30 36
e 30 37
e 30 38
e 30 40
e 30 41
e 30 45
e 30 46
e 30 48
e 30 50
e 30 53
e 30 55
e 30 56
e 30 59
e 30 63
e 30 65
e 30 68
e 30 74
e 30 87
e 30 94
e 30 95
e 31 32
e 31 34
e 31 35
e 31 37
e 31 38
e 31 40
e 31 41
e 31 46
e 31 48
e 31 50
e 31 52
e 31 53
e 31 54
e 31 58
e 31 59
e 31 62
e 31 63
e 31 64
e 31 66
e 31 68
e 31 72
e 31 73
e 31 86
e 31 87
e 32 35
e 32 36
e 32 38
e 32 41
e 32 43
e 32 44
e 32 45
e 32 48
e 32 50
e 32 52
e 32 54
e 32 55
e 32 58
e 32 60
e 32 63
e 32 64
e 32 67
e 32 68
e 32 75
e 32 80
e 32 83
e 32 84
e 32 90
e 32 96
e 32 99
e 33 35
e 33 36
e 33 37
e 33 38
e 33 44
e 33 45
e 33 61
e 33 62
e 33 66
e 33 69
e 33 74
e 33 78
e 33 86
e 33 87
e 33 88
e 33 93
e 33 95
e 33 100
e 34 35
e 34 38
e 34 45
e 34 46
e 34 49
e 34 51
e 34 52
e 34 55
e 34 58
e 34 60
e 34 62
e 34 65
e 34 67
e 34 70
e 34 82
e 34 88
e 34 90
e 34 95
e 34 96
e 34 98
e 35 36
e 35 38
e 35 42
e 35 45
e 35 46
e 35 49
e 35 51
e 35 54
e 35 56
e 35 57
e 35 58
e 35 63
e 35 65
e 35 71
e 35 74
e 35 75
e 35 77
e 35 80
e 35 81
e 35 83
e 35 97
e 36 38
e 36 43
e 36 44
e 36 46
e 36 49
e 36 50
e 36 52
e 36 55
e 36 58
e 36 67
e 36 71
e 36 73
e 36 74
e 36 80
e 36 82
e 36 83
e 36 90
e 36 92
e 37 39
e 37 40
e 37 41
e 37 51
e 37 57
e 37 58
e 37 62
e 37 69
e 37 70
e 37 72
e 37 83
e 37 88
e 37 89
e 37 93
e 37 96
e 37 98
e 37 99
e 38 39
e 38 41
e 38 42
e 38 45
e 38 46
e 38 47
e 38 50
e 38 61
e 38 68
e 38 69
e 38 73
e 38 80
e 38 83
e 38 85
e 38 87
e 38 89
e 38 95
e 39 42
e 39 43
e 39 46
e 39 50
e 39 51
e 39 52
e 39 53
e 39 60
e 39 61
e 39 67
e 39 69
e 39 73
e 39 76
e 39 78
e 39 79
e 39 82
e 39 83
e 39 87
e 39 89
e 39 91
e 39 93
e 39 94
e 39 100
e 40 43
e 40 47
e 40 48
e 40 50
e 40 52
e 40 53
e 40 56
e 40 61
e 40 63
e 40 66
e 40 68
e 40 77
e 40 79
e 40 81
e 40 86
e 40 87
e 40 96
e 40 98
e 40 99
e 41 42
e 41 47
e 41 50
e 41 53
e 41 54
e 41 56
e 41 71
e 41 76
e 41 77
e 41 84
e 41 90
e 42 47
e 42 48
e 42 49
e 42 57
e 42 60
e 42 61
e 42 64
e 42 65
e 42 76
e 42 77
e 42 81
e 42 82
e 42 84
e 42 85
e 42 86
e 42 89
e 42 91
e 43 47
e 43 54
e 43 59
e 43 68
e 43 87
e 43 89
e 43 91
e 43 92
e 44 45
e 44 46
e 44 53
e 44 54
e 44 55
e 44 56
e 44 66
e 44 70
e 44 71
e 44 93
e 44 97
e 44 100
e 45 47
e 45 55
e 45 59
e 45 61
e 45 66
e 45 67
e 45 68
e 45 70
e 45 75
e 45 80
e 45 82
e 45 88
e 45 89
e 45 90
e 45 92
e 45 95
e 45 99
e 46 49
e 46 50
e 46 51
e 46 53
e 46 55
e 46 56
e 46 57
e 46 58
e 46 68
e 46 72
e 46 77
e 46 87
e 46 91
e 46 98
e 47 52
e 47 64
e 47 68
e 47 69
e 47 72
e 47 78
e 47 89
e 47 92
e 47 95
e 47 100
e 48 58
e 48 70
e 48 71
e 48 74
e 48 75
e 48 83
e 48 91
e 48 99
e 49 52
e 49 55
e 49 56
e 49 59
e 49 61
e 49 63
e 49 64
e 49 69
e 49 76
e 49 82
e 49 83
e 49 87
e 49 92
e 49 100
e 50 52
e 50 58
e 50 59
e 50 61
e 50 62
e 50 70
e 50 73
e 50 75
e 50 76
e 50 78
e 50 79
e 50 81
e 50 85
e 50 88
e 50 89
e 50 93
e 50 96
e 50 97
e 50 98
e 51 62
e 51 66
e 51 71
e 51 88
e 51 94
e 51 97
e 52 54
e 52 55
e 52 56
e 52 57
e 52 64
e 52 65
e 52 68
e 52 69
e 52 71
e 52 77
e 52 84
e 53 59
e 53 63
e 53 66
e 53 73
e 53 74
e 53 80
e 53 81
e 53 89
e 53 95
e 54 55
e 54 64
e 54 65
e 54 72
e 54 76
e 54 85
e 54 86
e 54 88
e 54 93
e 54 98
e 55 56
e 55 65
e 55 69
e 55 74
e 55 79
e 55 84
e 55 93
e 55 94
e 56 57
e 56 60
e 56 61
e 56 72
e 56 75
e 56 84
e 56 90
e 56 100
e 57 58
e 57 60
e 57 73
e 57 79
e 57 83
e 57 90
e 57 99
e 58 60
e 58 65
e 58 66
e 58 78
e 58 81
e 58 96
e 59 64
e 59 68
e 59 69
e 59 70
e 59 75
e 59 79
e 59 87
e 59 90
e 60 61
e 60 69
e 60 71
e 60 73
e 60 79
e 60 82
e 60 92
e 60 95
e 61 63
e 61 76
e 61 78
e 61 97
e 61 99
e 62 63
e 62 71
e 62 88
e 62 92
e 62 94
e 63 65
e 63 67
e 63 70
e 64 85
e 64 99
e 65 72
e 65 75
e 65 82
e 65 90
e 66 72
e 66 77
e 66 85
e 66 86
e 67 75
e 67 78
e 67 97
e 68 78
e 68 85
e 69 76
e 69 98
e 70 71
e 70 75
e 70 76
e 70 79
e 70 87
e 70 90
e 70 91
e 70 94
e 71 72
e 71 79
e 71 84
e 71 91
e 72 83
e 72 89
e 72 97
e 73 77
e 73 95
e 74 81
e 74 83
e 74 89
e 74 93
e 74 95
e 75 86
e 76 77
e 76 84
e 76 86
e 76 100
e 77 79
e 77 90
e 77 92
e 78 80
e 78 82
e 78 85
e 78 96
e 78 97
e 79 85
e 79 96
e 80 91
e 81 96
e 82 87
e 87 90
e 89 95
e 89 96
e 90 92
e 90 93
e 90 96
e 93 95
e 94 96
e 94 99
e 97 99
